solution status: optimal solution found
objective value:                     218331.182516807
d11(0,0)                                            1 	(obj:0)
d11(1,1)                                            1 	(obj:0)
d11(2,3)                                            1 	(obj:0)
d11(2,5)                                            1 	(obj:0)
d11(3,7)                                            1 	(obj:0)
d11(3,9)                                            1 	(obj:0)
d11(3,11)                                           1 	(obj:0)
d11(3,13)                                           1 	(obj:0)
d11(4,15)                                           1 	(obj:0)
d11(4,16)                                           1 	(obj:0)
d11(4,17)                                           1 	(obj:0)
d11(4,18)                           0.999999999999995 	(obj:0)
d11(4,19)                                           1 	(obj:0)
d11(4,21)                                           1 	(obj:0)
d11(4,23)                                           1 	(obj:0)
d11(4,24)                                           1 	(obj:0)
d11(4,25)                                           1 	(obj:0)
d11(4,27)                                           1 	(obj:0)
d11(4,29)                                           1 	(obj:0)
d11(4,30)                           0.999999999999995 	(obj:0)
d11(5,31)                                           1 	(obj:0)
d11(5,32)                                           1 	(obj:0)
d11(5,33)                                           1 	(obj:0)
d11(5,34)                                           1 	(obj:0)
d11(5,35)                                           1 	(obj:0)
d11(5,36)                                           1 	(obj:0)
d11(5,37)                                           1 	(obj:0)
d11(5,38)                                           1 	(obj:0)
d11(5,39)                                           1 	(obj:0)
d11(5,40)                                           1 	(obj:0)
d11(5,41)                                           1 	(obj:0)
d11(5,42)                                           1 	(obj:0)
d11(5,43)                                           1 	(obj:0)
d11(5,44)                                           1 	(obj:0)
d11(5,45)                                           1 	(obj:0)
d11(5,46)                                           1 	(obj:0)
d11(5,47)                                           1 	(obj:0)
d11(5,48)                                           1 	(obj:0)
d11(5,49)                                           1 	(obj:0)
d11(5,50)                                           1 	(obj:0)
d11(5,51)                                           1 	(obj:0)
d11(5,52)                                           1 	(obj:0)
d11(5,53)                                           1 	(obj:0)
d11(5,54)                                           1 	(obj:0)
d11(5,55)                                           1 	(obj:0)
d11(5,56)                                           1 	(obj:0)
d11(5,57)                                           1 	(obj:0)
d11(5,58)                                           1 	(obj:0)
d11(5,59)                                           1 	(obj:0)
d11(5,60)                                           1 	(obj:0)
d11(5,61)                                           1 	(obj:0)
d11(5,62)                                           1 	(obj:0)
d11(6,63)                                           1 	(obj:0)
d11(6,65)                            1.00000000000001 	(obj:0)
d11(6,67)                                           1 	(obj:0)
d11(6,69)                            1.00000000000001 	(obj:0)
d11(6,71)                                           1 	(obj:0)
d11(6,73)                                           1 	(obj:0)
d11(6,75)                                           1 	(obj:0)
d11(6,77)                            1.00000000000001 	(obj:0)
d11(6,79)                                           1 	(obj:0)
d11(6,81)                                           1 	(obj:0)
d11(6,83)                                           1 	(obj:0)
d11(6,85)                                           1 	(obj:0)
d11(6,87)                                           1 	(obj:0)
d11(6,89)                                           1 	(obj:0)
d11(6,91)                            1.00000000000001 	(obj:0)
d11(6,93)                                           1 	(obj:0)
d11(6,95)                                           1 	(obj:0)
d11(6,97)                                           1 	(obj:0)
d11(6,99)                                           1 	(obj:0)
d11(6,103)                                          1 	(obj:0)
d11(6,105)                                          1 	(obj:0)
d11(6,107)                                          1 	(obj:0)
d11(6,109)                                          1 	(obj:0)
d11(6,111)                                          1 	(obj:0)
d11(6,113)                                          1 	(obj:0)
d11(6,115)                                          1 	(obj:0)
d11(6,117)                           1.00000000000001 	(obj:0)
d11(6,119)                                          1 	(obj:0)
d11(6,121)                                          1 	(obj:0)
d11(6,123)                           1.00000000000001 	(obj:0)
d11(6,125)                                          1 	(obj:0)
d12(2,4)                                            1 	(obj:0)
d12(2,6)                                            1 	(obj:0)
d12(3,8)                                            1 	(obj:0)
d12(3,10)                                           1 	(obj:0)
d12(3,12)                                           1 	(obj:0)
d12(3,14)                                           1 	(obj:0)
d12(6,64)                                           1 	(obj:0)
d12(6,66)                                           1 	(obj:0)
d12(6,68)                                           1 	(obj:0)
d12(6,70)                                           1 	(obj:0)
d12(6,72)                                           1 	(obj:0)
d12(6,74)                                           1 	(obj:0)
d12(6,76)                                           1 	(obj:0)
d12(6,78)                                           1 	(obj:0)
d12(6,80)                                           1 	(obj:0)
d12(6,82)                                           1 	(obj:0)
d12(6,84)                                           1 	(obj:0)
d12(6,86)                                           1 	(obj:0)
d12(6,88)                                           1 	(obj:0)
d12(6,90)                                           1 	(obj:0)
d12(6,92)                                           1 	(obj:0)
d12(6,94)                                           1 	(obj:0)
d12(6,96)                                           1 	(obj:0)
d12(6,98)                                           1 	(obj:0)
d12(6,100)                                          1 	(obj:0)
d12(6,102)                                          1 	(obj:0)
d12(6,104)                                          1 	(obj:0)
d12(6,106)                                          1 	(obj:0)
d12(6,108)                                          1 	(obj:0)
d12(6,110)                                          1 	(obj:0)
d12(6,112)                                          1 	(obj:0)
d12(6,114)                                          1 	(obj:0)
d12(6,116)                                          1 	(obj:0)
d12(6,118)                                          1 	(obj:0)
d12(6,120)                                          1 	(obj:0)
d12(6,122)                                          1 	(obj:0)
d12(6,124)                                          1 	(obj:0)
d12(6,126)                                          1 	(obj:0)
d21(4,15)                                           1 	(obj:0)
d21(5,31)                                           1 	(obj:0)
d21(5,32)                                           1 	(obj:0)
d21(5,33)                                           1 	(obj:0)
d21(5,34)                                           1 	(obj:0)
d21(5,35)                                           1 	(obj:0)
d21(5,36)                                           1 	(obj:0)
d21(5,37)                                           1 	(obj:0)
d21(5,39)                                           1 	(obj:0)
d21(5,40)                                           1 	(obj:0)
d21(5,41)                                           1 	(obj:0)
d21(5,43)                                           1 	(obj:0)
d21(5,47)                                           1 	(obj:0)
d21(5,48)                                           1 	(obj:0)
d21(5,49)                                           1 	(obj:0)
d21(5,51)                                           1 	(obj:0)
d21(5,55)                                           1 	(obj:0)
d21(6,63)                                           1 	(obj:0)
d21(6,64)                                           1 	(obj:0)
d21(6,65)                                           1 	(obj:0)
d21(6,66)                                           1 	(obj:0)
d21(6,67)                                           1 	(obj:0)
d21(6,68)                                           1 	(obj:0)
d21(6,69)                                           1 	(obj:0)
d21(6,70)                                           1 	(obj:0)
d21(6,71)                                           1 	(obj:0)
d21(6,72)                                           1 	(obj:0)
d21(6,73)                                           1 	(obj:0)
d21(6,74)                                           1 	(obj:0)
d21(6,75)                                           1 	(obj:0)
d21(6,76)                                           1 	(obj:0)
d21(6,79)                                           1 	(obj:0)
d21(6,80)                                           1 	(obj:0)
d21(6,81)                                           1 	(obj:0)
d21(6,82)                                           1 	(obj:0)
d21(6,83)                                           1 	(obj:0)
d21(6,84)                                           1 	(obj:0)
d21(6,85)                                           1 	(obj:0)
d21(6,87)                                           1 	(obj:0)
d21(6,88)                                           1 	(obj:0)
d21(6,89)                                           1 	(obj:0)
d21(6,91)                                           1 	(obj:0)
d21(6,95)                                           1 	(obj:0)
d21(6,96)                                           1 	(obj:0)
d21(6,97)                                           1 	(obj:0)
d21(6,98)                                           1 	(obj:0)
d21(6,99)                                           1 	(obj:0)
d21(6,100)                                          1 	(obj:0)
d21(6,103)                                          1 	(obj:0)
d21(6,104)                                          1 	(obj:0)
d21(6,105)                                          1 	(obj:0)
d21(6,107)                                          1 	(obj:0)
d21(6,111)                                          1 	(obj:0)
d21(6,112)                                          1 	(obj:0)
d21(6,113)                                          1 	(obj:0)
d21(6,115)                                          1 	(obj:0)
d21(6,119)                                          1 	(obj:0)
y2(6,100)                            1385.48851144895 	(obj:0)
y2(6,102)                            1385.48851144895 	(obj:0)
y2(6,104)                            1385.48851144895 	(obj:0)
y2(6,106)                            1385.48851144895 	(obj:0)
y2(6,108)                            1385.48851144895 	(obj:0)
y2(6,110)                            1385.48851144895 	(obj:0)
y2(6,112)                            1385.48851144895 	(obj:0)
y2(6,114)                            1385.48851144895 	(obj:0)
y2(6,116)                            1385.48851144895 	(obj:0)
y2(6,118)                            1385.48851144895 	(obj:0)
y2(6,120)                            1385.48851144895 	(obj:0)
y2(6,122)                            1385.48851144895 	(obj:0)
y2(6,124)                            1385.48851144895 	(obj:0)
y2(6,126)                            1385.48851144895 	(obj:0)
STE(1,1)                             10112.9381903922 	(obj:0)
STE(0,0)                                        12600 	(obj:0)
STE(1,2)                                        11592 	(obj:0)
STE(2,3)                              9104.9381903922 	(obj:0)
STE(2,4)                             10421.1522762687 	(obj:0)
STE(2,5)                                        10584 	(obj:0)
STE(2,6)                             11900.2140858765 	(obj:0)
STE(3,7)                             6617.87638078442 	(obj:0)
STE(3,8)                              8096.9381903922 	(obj:0)
STE(3,9)                             7934.09046666089 	(obj:0)
STE(3,10)                            9413.15227626866 	(obj:0)
STE(3,11)                            8096.93819039223 	(obj:0)
STE(3,12)                                        9576 	(obj:0)
STE(3,13)                             9413.1522762687 	(obj:0)
STE(3,14)                            10892.2140858765 	(obj:0)
STE(4,15)                            3951.62648189558 	(obj:0)
STE(4,16)                            5609.87638078439 	(obj:0)
STE(4,17)                            5430.68829150335 	(obj:0)
STE(4,18)                             7088.9381903922 	(obj:0)
STE(4,19)                            5267.84056777204 	(obj:0)
STE(4,20)                            6926.09046666089 	(obj:0)
STE(4,21)                            6746.90237737982 	(obj:0)
STE(4,22)                            8405.15227626866 	(obj:0)
STE(4,23)                            5430.68829150338 	(obj:0)
STE(4,24)                             7088.9381903922 	(obj:0)
STE(4,25)                            6909.75010111115 	(obj:0)
STE(4,26)                                        8568 	(obj:0)
STE(4,27)                            6746.90237737985 	(obj:0)
STE(4,28)                             8405.1522762687 	(obj:0)
STE(4,29)                            8225.96418698763 	(obj:0)
STE(4,30)                            9884.21408587647 	(obj:0)
STE(5,31)                            1252.43839261456 	(obj:0)
STE(5,32)                            2910.68829150338 	(obj:0)
STE(5,33)                            2910.68829150338 	(obj:0)
STE(5,34)                             4568.9381903922 	(obj:0)
STE(5,35)                            2731.50020222233 	(obj:0)
STE(5,36)                            4389.75010111115 	(obj:0)
STE(5,37)                            4389.75010111118 	(obj:0)
STE(5,38)                                        6048 	(obj:0)
STE(5,39)                            2568.65247849103 	(obj:0)
STE(5,40)                            4226.90237737985 	(obj:0)
STE(5,41)                            4226.90237737987 	(obj:0)
STE(5,42)                            5885.15227626869 	(obj:0)
STE(5,43)                             4047.7142880988 	(obj:0)
STE(5,44)                            5705.96418698762 	(obj:0)
STE(5,45)                            5705.96418698765 	(obj:0)
STE(5,46)                            7364.21408587647 	(obj:0)
STE(5,47)                            2731.50020222236 	(obj:0)
STE(5,48)                            4389.75010111118 	(obj:0)
STE(5,49)                            4389.75010111118 	(obj:0)
STE(5,50)                                        6048 	(obj:0)
STE(5,51)                            4210.56201183014 	(obj:0)
STE(5,52)                            5868.81191071896 	(obj:0)
STE(5,53)                            5868.81191071898 	(obj:0)
STE(5,54)                             7527.0618096078 	(obj:0)
STE(5,55)                            4047.71428809883 	(obj:0)
STE(5,56)                            5705.96418698765 	(obj:0)
STE(5,57)                            5705.96418698768 	(obj:0)
STE(5,58)                             7364.2140858765 	(obj:0)
STE(5,59)                            5526.77609770661 	(obj:0)
STE(5,60)                            7185.02599659543 	(obj:0)
STE(5,61)                            7185.02599659545 	(obj:0)
STE(5,62)                            8843.27589548427 	(obj:0)
STE(6,63)                            244.438392614603 	(obj:0)
STE(6,64)                            1560.65247849107 	(obj:0)
STE(6,65)                            1902.68829150338 	(obj:0)
STE(6,66)                            3218.90237737988 	(obj:0)
STE(6,67)                            1902.68829150342 	(obj:0)
STE(6,68)                            3218.90237737988 	(obj:0)
STE(6,69)                             3560.9381903922 	(obj:0)
STE(6,70)                             4877.1522762687 	(obj:0)
STE(6,71)                            1723.50020222233 	(obj:0)
STE(6,72)                            3039.71428809884 	(obj:0)
STE(6,73)                            3381.75010111119 	(obj:0)
STE(6,74)                            4697.96418698766 	(obj:0)
STE(6,75)                            3381.75010111122 	(obj:0)
STE(6,76)                            4697.96418698769 	(obj:0)
STE(6,77)                                        5040 	(obj:0)
STE(6,78)                            6356.21408587651 	(obj:0)
STE(6,79)                            1560.65247849107 	(obj:0)
STE(6,80)                            2876.86656436753 	(obj:0)
STE(6,81)                            3218.90237737985 	(obj:0)
STE(6,82)                            4535.11646325635 	(obj:0)
STE(6,83)                            3218.90237737987 	(obj:0)
STE(6,84)                            4535.11646325638 	(obj:0)
STE(6,85)                            4877.15227626869 	(obj:0)
STE(6,86)                             6193.3663621452 	(obj:0)
STE(6,87)                             3039.7142880988 	(obj:0)
STE(6,88)                            4355.92837397531 	(obj:0)
STE(6,89)                            4697.96418698762 	(obj:0)
STE(6,90)                            6014.17827286413 	(obj:0)
STE(6,91)                            4697.96418698765 	(obj:0)
STE(6,92)                            6014.17827286415 	(obj:0)
STE(6,93)                            6356.21408587647 	(obj:0)
STE(6,94)                            7672.42817175297 	(obj:0)
STE(6,95)                            1723.50020222241 	(obj:0)
STE(6,96)                            3039.71428809887 	(obj:0)
STE(6,97)                            3381.75010111118 	(obj:0)
STE(6,98)                            4697.96418698769 	(obj:0)
STE(6,99)                            3381.75010111122 	(obj:0)
STE(6,100)                           4697.96418698769 	(obj:0)
STE(6,101)                                       5040 	(obj:0)
STE(6,102)                           6356.21408587651 	(obj:0)
STE(6,103)                           3202.56201183018 	(obj:0)
STE(6,104)                           4518.77609770664 	(obj:0)
STE(6,105)                           4860.81191071896 	(obj:0)
STE(6,106)                           6177.02599659546 	(obj:0)
STE(6,107)                           4860.81191071898 	(obj:0)
STE(6,108)                           6177.02599659549 	(obj:0)
STE(6,109)                            6519.0618096078 	(obj:0)
STE(6,110)                           7835.27589548431 	(obj:0)
STE(6,111)                           3039.71428809888 	(obj:0)
STE(6,112)                           4355.92837397534 	(obj:0)
STE(6,113)                           4697.96418698765 	(obj:0)
STE(6,114)                           6014.17827286416 	(obj:0)
STE(6,115)                           4697.96418698768 	(obj:0)
STE(6,116)                           6014.17827286419 	(obj:0)
STE(6,117)                            6356.2140858765 	(obj:0)
STE(6,118)                             7672.428171753 	(obj:0)
STE(6,119)                           4518.77609770661 	(obj:0)
STE(6,120)                           5834.99018358311 	(obj:0)
STE(6,121)                           6177.02599659543 	(obj:0)
STE(6,122)                           7493.24008247193 	(obj:0)
STE(6,123)                           6177.02599659545 	(obj:0)
STE(6,124)                           7493.24008247196 	(obj:0)
STE(6,125)                           7835.27589548427 	(obj:0)
STE(6,126)                           9151.48998136078 	(obj:0)
BG(5)                                753.771779561273 	(obj:10)
AVE(1)                               3259.55177567504 	(obj:0)
WB(2)                                586.145949266141 	(obj:0)
AVE(2)                               3259.55588804169 	(obj:0)
WB(3)                                3579.36165209166 	(obj:0)
AVE(3)                               3579.36165209166 	(obj:0)
AVE(4)                               3579.36576445831 	(obj:0)
AVE(5)                               3472.77007794174 	(obj:0)
WB(6)                                 372.95195629129 	(obj:0)
AVE(6)                                3046.3618950668 	(obj:0)
WG(1)                                3259.55177567504 	(obj:10)
WG(2)                                2673.40993877555 	(obj:10)
WG(4)                                3579.36576445831 	(obj:10)
WG(5)                                3472.77007794174 	(obj:10)
WG(6)                                2673.40993877551 	(obj:10)
BG(1)                                772.180233148493 	(obj:10)
BG(3)                                 4031.7320088235 	(obj:10)
BG(4)                                616.926734521282 	(obj:10)
y1(1,1)                              1331.15562864702 	(obj:0)
y1(3,7)                                1331.155628647 	(obj:0)
y1(3,9)                                1331.155628647 	(obj:0)
y1(3,11)                               1331.155628647 	(obj:0)
y1(3,13)                               1331.155628647 	(obj:0)
y1(4,15)                             1492.42490899996 	(obj:0)
y1(4,17)                             1492.42490899996 	(obj:0)
y1(4,19)                             1492.42490899996 	(obj:0)
y1(4,21)                             1492.42490899996 	(obj:0)
y1(4,23)                             1492.42490899996 	(obj:0)
y1(4,25)                             1492.42490899996 	(obj:0)
y1(4,27)                             1492.42490899996 	(obj:0)
y1(4,29)                             1492.42490899996 	(obj:0)
y1(5,31)                             1522.06928035291 	(obj:0)
y1(5,32)                             29.6443713529788 	(obj:0)
y1(5,33)                             1522.06928035291 	(obj:0)
y1(5,34)                             29.6443713529783 	(obj:0)
y1(5,35)                             1522.06928035291 	(obj:0)
y1(5,36)                             29.6443713529783 	(obj:0)
y1(5,37)                             1522.06928035291 	(obj:0)
y1(5,38)                             29.6443713529783 	(obj:0)
y1(5,39)                             1522.06928035291 	(obj:0)
y1(5,40)                             29.6443713529783 	(obj:0)
y1(5,41)                             1522.06928035291 	(obj:0)
y1(5,42)                             29.6443713529783 	(obj:0)
y1(5,43)                             1522.06928035291 	(obj:0)
y1(5,44)                             29.6443713529783 	(obj:0)
y1(5,45)                             1522.06928035291 	(obj:0)
y1(5,46)                             29.6443713529783 	(obj:0)
y1(5,47)                             1522.06928035291 	(obj:0)
y1(5,48)                             29.6443713529783 	(obj:0)
y1(5,49)                             1522.06928035291 	(obj:0)
y1(5,50)                             29.6443713529785 	(obj:0)
y1(5,51)                             1522.06928035291 	(obj:0)
y1(5,52)                             29.6443713529783 	(obj:0)
y1(5,53)                             1522.06928035291 	(obj:0)
y1(5,54)                             29.6443713529783 	(obj:0)
y1(5,55)                             1522.06928035291 	(obj:0)
y1(5,56)                             29.6443713529783 	(obj:0)
y1(5,57)                             1522.06928035291 	(obj:0)
y1(5,58)                             29.6443713529783 	(obj:0)
y1(5,59)                             1522.06928035291 	(obj:0)
y1(5,60)                             29.6443713529783 	(obj:0)
y1(5,61)                             1522.06928035291 	(obj:0)
y1(5,62)                             29.6443713529783 	(obj:0)
y2(2,4)                              1385.48851144891 	(obj:0)
y2(2,6)                              1385.48851144891 	(obj:0)
y2(6,64)                             1385.48851144895 	(obj:0)
y2(6,66)                             1385.48851144895 	(obj:0)
y2(6,68)                             1385.48851144895 	(obj:0)
y2(6,70)                             1385.48851144895 	(obj:0)
y2(6,72)                             1385.48851144895 	(obj:0)
y2(6,74)                             1385.48851144895 	(obj:0)
y2(6,76)                             1385.48851144895 	(obj:0)
y2(6,78)                             1385.48851144895 	(obj:0)
y2(6,80)                             1385.48851144895 	(obj:0)
y2(6,82)                             1385.48851144895 	(obj:0)
y2(6,84)                             1385.48851144895 	(obj:0)
y2(6,86)                             1385.48851144895 	(obj:0)
y2(6,88)                             1385.48851144895 	(obj:0)
y2(6,90)                             1385.48851144895 	(obj:0)
y2(6,92)                             1385.48851144895 	(obj:0)
y2(6,94)                             1385.48851144895 	(obj:0)
y2(6,96)                             1385.48851144895 	(obj:0)
y2(6,98)                             1385.48851144895 	(obj:0)
